p tw 117 21061 2 
1 3 
1 4 
1 5 
1 6 
1 7 
1 8 
1 9 
1 10 
1 11 
1 12 
1 13 
1 14 
1 15 
1 16 
1 17 
1 18 
1 19 
1 20 
1 21 
1 22 
1 23 
1 24 
1 25 
1 33 
1 39 
1 48 
1 74 
1 81 
1 85 
1 90 
1 94 
1 95 
1 96 
1 97 
1 98 
2 3 
2 4 
2 5 
2 6 
2 7 
2 8 
2 9 
2 10 
2 11 
2 12 
2 13 
2 14 
2 23 
2 26 
2 27 
2 28 
2 29 
2 30 
2 31 
2 32 
2 33 
2 34 
2 35 
2 36 
2 37 
2 57 
2 73 
2 79 
2 98 
2 102 
2 104 
2 106 
2 109 
2 113 
2 117 
3 4 
3 5 
3 6 
3 7 
3 8 
3 9 
3 10 
3 11 
3 12 
3 13 
3 14 
3 20 
3 34 
3 37 
3 38 
3 39 
3 40 
3 41 
3 42 
3 43 
3 44 
3 45 
3 46 
3 47 
3 52 
3 59 
3 68 
3 75 
3 86 
3 94 
3 99 
3 100 
3 101 
3 102 
4 5 
4 6 
4 7 
4 8 
4 9 
4 10 
4 11 
4 12 
4 13 
4 15 
4 25 
4 26 
4 33 
4 37 
4 44 
4 48 
4 49 
4 50 
4 51 
4 52 
4 53 
4 54 
4 55 
4 56 
4 63 
4 65 
4 83 
4 89 
4 93 
4 100 
4 104 
4 107 
4 114 
5 6 
5 7 
5 8 
5 9 
5 10 
5 11 
5 12 
5 13 
5 16 
5 24 
5 27 
5 29 
5 38 
5 47 
5 48 
5 54 
5 57 
5 58 
5 59 
5 60 
5 61 
5 62 
5 63 
5 64 
5 70 
5 82 
5 88 
5 93 
5 97 
5 102 
5 103 
5 112 
6 7 
6 8 
6 9 
6 10 
6 11 
6 12 
6 13 
6 17 
6 19 
6 28 
6 31 
6 39 
6 40 
6 49 
6 51 
6 57 
6 60 
6 65 
6 66 
6 67 
6 68 
6 69 
6 70 
6 71 
6 79 
6 84 
6 85 
6 86 
6 87 
6 88 
6 89 
7 8 
7 9 
7 10 
7 11 
7 12 
7 13 
7 15 
7 25 
7 29 
7 36 
7 40 
7 46 
7 49 
7 58 
7 64 
7 65 
7 72 
7 73 
7 74 
7 75 
7 76 
7 77 
7 78 
7 81 
7 88 
7 91 
7 99 
7 108 
7 113 
7 116 
8 9 
8 10 
8 11 
8 12 
8 13 
8 18 
8 24 
8 30 
8 35 
8 41 
8 43 
8 50 
8 56 
8 59 
8 63 
8 66 
8 68 
8 72 
8 78 
8 79 
8 80 
8 81 
8 82 
8 83 
8 84 
8 98 
8 105 
8 115 
8 116 
9 10 
9 11 
9 12 
9 13 
9 16 
9 19 
9 28 
9 32 
9 42 
9 47 
9 52 
9 55 
9 64 
9 67 
9 73 
9 76 
9 80 
9 83 
9 84 
9 90 
9 91 
9 92 
9 93 
9 96 
9 101 
9 110 
9 115 
9 117 
10 11 
10 12 
10 13 
10 18 
10 23 
10 32 
10 34 
10 43 
10 46 
10 53 
10 56 
10 61 
10 62 
10 66 
10 69 
10 76 
10 77 
10 86 
10 87 
10 91 
10 95 
10 97 
10 103 
10 104 
10 110 
10 111 
10 114 
11 12 
11 13 
11 21 
11 22 
11 27 
11 31 
11 38 
11 41 
11 53 
11 55 
11 67 
11 69 
11 77 
11 78 
11 82 
11 85 
11 92 
11 96 
11 99 
11 100 
11 105 
11 106 
11 107 
11 111 
11 112 
11 113 
12 13 
12 17 
12 21 
12 26 
12 30 
12 44 
12 45 
12 54 
12 58 
12 62 
12 71 
12 75 
12 80 
12 87 
12 89 
12 92 
12 94 
12 95 
12 105 
12 108 
12 109 
12 110 
12 112 
12 116 
12 117 
13 20 
13 22 
13 35 
13 36 
13 42 
13 45 
13 50 
13 51 
13 60 
13 61 
13 70 
13 71 
13 72 
13 74 
13 90 
13 101 
13 103 
13 106 
13 107 
13 108 
13 109 
13 111 
13 114 
13 115 
14 15 
14 16 
14 17 
14 18 
14 19 
14 20 
14 21 
14 22 
14 23 
14 24 
14 25 
14 26 
14 27 
14 28 
14 29 
14 30 
14 31 
14 32 
14 33 
14 34 
14 35 
14 36 
14 37 
14 38 
14 39 
14 40 
14 41 
14 42 
14 43 
14 44 
14 45 
14 46 
14 47 
15 16 
15 17 
15 18 
15 19 
15 20 
15 21 
15 22 
15 23 
15 24 
15 25 
15 26 
15 29 
15 37 
15 40 
15 48 
15 49 
15 50 
15 51 
15 52 
15 53 
15 54 
15 55 
15 56 
15 58 
15 65 
15 72 
15 73 
15 74 
15 75 
15 76 
15 77 
15 78 
16 17 
16 18 
16 19 
16 20 
16 21 
16 22 
16 23 
16 24 
16 25 
16 27 
16 32 
16 38 
16 42 
16 48 
16 52 
16 57 
16 58 
16 59 
16 60 
16 61 
16 62 
16 63 
16 64 
16 67 
16 73 
16 80 
16 84 
16 90 
16 91 
16 92 
16 93 
17 18 
17 19 
17 20 
17 21 
17 22 
17 23 
17 24 
17 25 
17 28 
17 30 
17 39 
17 44 
17 49 
17 54 
17 57 
17 58 
17 65 
17 66 
17 67 
17 68 
17 69 
17 70 
17 71 
17 87 
17 92 
17 94 
17 105 
17 108 
17 109 
17 110 
18 19 
18 20 
18 21 
18 22 
18 23 
18 24 
18 25 
18 30 
18 34 
18 41 
18 43 
18 50 
18 53 
18 59 
18 61 
18 66 
18 69 
18 72 
18 76 
18 79 
18 80 
18 81 
18 82 
18 83 
18 87 
18 91 
18 95 
18 103 
18 104 
19 20 
19 21 
19 22 
19 23 
19 24 
19 25 
19 28 
19 31 
19 40 
19 47 
19 51 
19 55 
19 60 
19 64 
19 76 
19 79 
19 83 
19 84 
19 85 
19 86 
19 87 
19 88 
19 89 
19 96 
19 101 
19 110 
19 115 
19 117 
20 21 
20 22 
20 23 
20 24 
20 25 
20 34 
20 36 
20 42 
20 50 
20 52 
20 59 
20 60 
20 68 
20 71 
20 74 
20 75 
20 86 
20 94 
20 99 
20 100 
20 101 
20 102 
20 103 
20 107 
20 109 
20 111 
20 115 
21 22 
21 23 
21 24 
21 25 
21 26 
21 31 
21 38 
21 45 
21 53 
21 62 
21 67 
21 71 
21 75 
21 77 
21 80 
21 82 
21 89 
21 95 
21 96 
21 99 
21 105 
21 106 
21 107 
21 112 
21 116 
21 117 
22 23 
22 24 
22 25 
22 27 
22 35 
22 41 
22 45 
22 51 
22 55 
22 61 
22 69 
22 70 
22 72 
22 78 
22 85 
22 90 
22 92 
22 100 
22 101 
22 106 
22 108 
22 111 
22 112 
22 113 
22 114 
23 24 
23 25 
23 32 
23 37 
23 46 
23 56 
23 57 
23 62 
23 66 
23 73 
23 77 
23 79 
23 86 
23 97 
23 98 
23 102 
23 104 
23 106 
23 109 
23 110 
23 111 
23 113 
23 114 
23 117 
24 25 
24 29 
24 35 
24 43 
24 47 
24 54 
24 56 
24 63 
24 68 
24 70 
24 78 
24 82 
24 84 
24 88 
24 93 
24 97 
24 98 
24 102 
24 103 
24 105 
24 112 
24 115 
24 116 
25 33 
25 36 
25 44 
25 46 
25 49 
25 63 
25 64 
25 65 
25 81 
25 83 
25 88 
25 89 
25 91 
25 93 
25 99 
25 100 
25 104 
25 107 
25 108 
25 113 
25 114 
25 116 
26 27 
26 28 
26 29 
26 30 
26 31 
26 32 
26 33 
26 34 
26 35 
26 36 
26 37 
26 45 
26 48 
26 49 
26 50 
26 51 
26 52 
26 53 
26 54 
26 55 
26 56 
26 62 
26 71 
26 75 
26 80 
26 89 
26 95 
26 112 
26 116 
26 117 
27 28 
27 29 
27 30 
27 31 
27 32 
27 33 
27 34 
27 35 
27 36 
27 38 
27 41 
27 48 
27 55 
27 57 
27 58 
27 59 
27 60 
27 61 
27 62 
27 63 
27 64 
27 69 
27 78 
27 85 
27 92 
27 100 
27 111 
27 112 
27 113 
28 29 
28 30 
28 31 
28 32 
28 33 
28 34 
28 35 
28 36 
28 39 
28 47 
28 49 
28 55 
28 57 
28 64 
28 65 
28 66 
28 67 
28 68 
28 69 
28 70 
28 71 
28 76 
28 83 
28 96 
28 101 
28 110 
28 115 
28 117 
29 30 
29 31 
29 32 
29 33 
29 34 
29 35 
29 36 
29 40 
29 47 
29 54 
29 58 
29 65 
29 70 
29 72 
29 73 
29 74 
29 75 
29 76 
29 77 
29 78 
29 82 
29 88 
29 93 
29 97 
29 102 
29 103 
29 112 
30 31 
30 32 
30 33 
30 34 
30 35 
30 36 
30 41 
30 44 
30 50 
30 54 
30 58 
30 59 
30 66 
30 72 
30 79 
30 80 
30 81 
30 82 
30 83 
30 87 
30 92 
30 94 
30 105 
30 108 
30 109 
30 110 
31 32 
31 33 
31 34 
31 35 
31 36 
31 38 
31 40 
31 51 
31 53 
31 60 
31 67 
31 77 
31 79 
31 82 
31 84 
31 85 
31 86 
31 87 
31 88 
31 89 
31 96 
31 99 
31 105 
31 106 
31 107 
32 33 
32 34 
32 35 
32 36 
32 42 
32 46 
32 52 
32 56 
32 62 
32 66 
32 67 
32 73 
32 77 
32 80 
32 84 
32 86 
32 90 
32 91 
32 92 
32 93 
32 97 
32 110 
32 111 
32 114 
33 34 
33 35 
33 36 
33 39 
33 44 
33 48 
33 63 
33 65 
33 74 
33 81 
33 83 
33 85 
33 89 
33 90 
33 93 
33 94 
33 95 
33 96 
33 97 
33 98 
33 100 
33 104 
33 107 
33 114 
34 35 
34 36 
34 43 
34 52 
34 53 
34 59 
34 61 
34 68 
34 69 
34 75 
34 76 
34 86 
34 87 
34 91 
34 94 
34 95 
34 99 
34 100 
34 101 
34 102 
34 103 
34 104 
35 36 
35 43 
35 45 
35 51 
35 56 
35 61 
35 63 
35 68 
35 70 
35 72 
35 78 
35 84 
35 90 
35 98 
35 101 
35 105 
35 106 
35 108 
35 114 
35 115 
35 116 
36 42 
36 46 
36 49 
36 50 
36 60 
36 64 
36 71 
36 74 
36 81 
36 88 
36 91 
36 99 
36 103 
36 107 
36 108 
36 109 
36 111 
36 113 
36 115 
36 116 
37 38 
37 39 
37 40 
37 41 
37 42 
37 43 
37 44 
37 45 
37 46 
37 47 
37 48 
37 49 
37 50 
37 51 
37 52 
37 53 
37 54 
37 55 
37 56 
37 57 
37 73 
37 79 
37 98 
37 102 
37 104 
37 106 
37 109 
37 113 
37 117 
38 39 
38 40 
38 41 
38 42 
38 43 
38 44 
38 45 
38 46 
38 47 
38 48 
38 53 
38 57 
38 58 
38 59 
38 60 
38 61 
38 62 
38 63 
38 64 
38 67 
38 77 
38 82 
38 96 
38 99 
38 105 
38 106 
38 107 
39 40 
39 41 
39 42 
39 43 
39 44 
39 45 
39 46 
39 47 
39 48 
39 49 
39 57 
39 65 
39 66 
39 67 
39 68 
39 69 
39 70 
39 71 
39 74 
39 81 
39 85 
39 90 
39 94 
39 95 
39 96 
39 97 
39 98 
40 41 
40 42 
40 43 
40 44 
40 45 
40 46 
40 47 
40 51 
40 58 
40 60 
40 65 
40 72 
40 73 
40 74 
40 75 
40 76 
40 77 
40 78 
40 79 
40 84 
40 85 
40 86 
40 87 
40 88 
40 89 
41 42 
41 43 
41 44 
41 45 
41 46 
41 47 
41 50 
41 55 
41 59 
41 66 
41 69 
41 72 
41 78 
41 79 
41 80 
41 81 
41 82 
41 83 
41 85 
41 92 
41 100 
41 111 
41 112 
41 113 
42 43 
42 44 
42 45 
42 46 
42 47 
42 50 
42 52 
42 60 
42 67 
42 71 
42 73 
42 74 
42 80 
42 84 
42 90 
42 91 
42 92 
42 93 
42 103 
42 107 
42 109 
42 111 
42 115 
43 44 
43 45 
43 46 
43 47 
43 53 
43 56 
43 61 
43 63 
43 68 
43 69 
43 76 
43 78 
43 84 
43 87 
43 91 
43 95 
43 98 
43 103 
43 104 
43 105 
43 115 
43 116 
44 45 
44 46 
44 47 
44 54 
44 58 
44 63 
44 65 
44 83 
44 87 
44 89 
44 92 
44 93 
44 94 
44 100 
44 104 
44 105 
44 107 
44 108 
44 109 
44 110 
44 114 
45 46 
45 47 
45 51 
45 61 
45 62 
45 70 
45 71 
45 72 
45 75 
45 80 
45 89 
45 90 
45 95 
45 101 
45 106 
45 108 
45 112 
45 114 
45 116 
45 117 
46 47 
46 49 
46 56 
46 62 
46 64 
46 66 
46 77 
46 81 
46 86 
46 88 
46 91 
46 97 
46 99 
46 108 
46 110 
46 111 
46 113 
46 114 
46 116 
47 54 
47 55 
47 64 
47 70 
47 76 
47 82 
47 83 
47 88 
47 93 
47 96 
47 97 
47 101 
47 102 
47 103 
47 110 
47 112 
47 115 
47 117 
48 49 
48 50 
48 51 
48 52 
48 53 
48 54 
48 55 
48 56 
48 57 
48 58 
48 59 
48 60 
48 61 
48 62 
48 63 
48 64 
48 74 
48 81 
48 85 
48 90 
48 94 
48 95 
48 96 
48 97 
48 98 
49 50 
49 51 
49 52 
49 53 
49 54 
49 55 
49 56 
49 57 
49 64 
49 65 
49 66 
49 67 
49 68 
49 69 
49 70 
49 71 
49 81 
49 88 
49 91 
49 99 
49 108 
49 113 
49 116 
50 51 
50 52 
50 53 
50 54 
50 55 
50 56 
50 59 
50 60 
50 66 
50 71 
50 72 
50 74 
50 79 
50 80 
50 81 
50 82 
50 83 
50 103 
50 107 
50 109 
50 111 
50 115 
51 52 
51 53 
51 54 
51 55 
51 56 
51 60 
51 61 
51 70 
51 72 
51 79 
51 84 
51 85 
51 86 
51 87 
51 88 
51 89 
51 90 
51 101 
51 106 
51 108 
51 114 
52 53 
52 54 
52 55 
52 56 
52 59 
52 67 
52 68 
52 73 
52 75 
52 80 
52 84 
52 86 
52 90 
52 91 
52 92 
52 93 
52 94 
52 99 
52 100 
52 101 
52 102 
53 54 
53 55 
53 56 
53 61 
53 67 
53 69 
53 76 
53 77 
53 82 
53 87 
53 91 
53 95 
53 96 
53 99 
53 103 
53 104 
53 105 
53 106 
53 107 
54 55 
54 56 
54 58 
54 70 
54 82 
54 87 
54 88 
54 92 
54 93 
54 94 
54 97 
54 102 
54 103 
54 105 
54 108 
54 109 
54 110 
54 112 
55 56 
55 64 
55 69 
55 76 
55 78 
55 83 
55 85 
55 92 
55 96 
55 100 
55 101 
55 110 
55 111 
55 112 
55 113 
55 115 
55 117 
56 62 
56 63 
56 66 
56 68 
56 77 
56 78 
56 84 
56 86 
56 97 
56 98 
56 105 
56 110 
56 111 
56 114 
56 115 
56 116 
57 58 
57 59 
57 60 
57 61 
57 62 
57 63 
57 64 
57 65 
57 66 
57 67 
57 68 
57 69 
57 70 
57 71 
57 73 
57 79 
57 98 
57 102 
57 104 
57 106 
57 109 
57 113 
57 117 
58 59 
58 60 
58 61 
58 62 
58 63 
58 64 
58 65 
58 72 
58 73 
58 74 
58 75 
58 76 
58 77 
58 78 
58 87 
58 92 
58 94 
58 105 
58 108 
58 109 
58 110 
59 60 
59 61 
59 62 
59 63 
59 64 
59 66 
59 68 
59 72 
59 75 
59 79 
59 80 
59 81 
59 82 
59 83 
59 86 
59 94 
59 99 
59 100 
59 101 
59 102 
60 61 
60 62 
60 63 
60 64 
60 71 
60 74 
60 79 
60 84 
60 85 
60 86 
60 87 
60 88 
60 89 
60 103 
60 107 
60 109 
60 111 
60 115 
61 62 
61 63 
61 64 
61 69 
61 70 
61 72 
61 76 
61 87 
61 90 
61 91 
61 95 
61 101 
61 103 
61 104 
61 106 
61 108 
61 114 
62 63 
62 64 
62 66 
62 71 
62 75 
62 77 
62 80 
62 86 
62 89 
62 95 
62 97 
62 110 
62 111 
62 112 
62 114 
62 116 
62 117 
63 64 
63 65 
63 68 
63 78 
63 83 
63 84 
63 89 
63 93 
63 98 
63 100 
63 104 
63 105 
63 107 
63 114 
63 115 
63 116 
64 76 
64 81 
64 83 
64 88 
64 91 
64 96 
64 99 
64 101 
64 108 
64 110 
64 113 
64 115 
64 116 
64 117 
65 66 
65 67 
65 68 
65 69 
65 70 
65 71 
65 72 
65 73 
65 74 
65 75 
65 76 
65 77 
65 78 
65 83 
65 89 
65 93 
65 100 
65 104 
65 107 
65 114 
66 67 
66 68 
66 69 
66 70 
66 71 
66 72 
66 77 
66 79 
66 80 
66 81 
66 82 
66 83 
66 86 
66 97 
66 110 
66 111 
66 114 
67 68 
67 69 
67 70 
67 71 
67 73 
67 77 
67 80 
67 82 
67 84 
67 90 
67 91 
67 92 
67 93 
67 96 
67 99 
67 105 
67 106 
67 107 
68 69 
68 70 
68 71 
68 75 
68 78 
68 84 
68 86 
68 94 
68 98 
68 99 
68 100 
68 101 
68 102 
68 105 
68 115 
68 116 
69 70 
69 71 
69 76 
69 78 
69 85 
69 87 
69 91 
69 92 
69 95 
69 100 
69 103 
69 104 
69 111 
69 112 
69 113 
70 71 
70 72 
70 82 
70 88 
70 90 
70 93 
70 97 
70 101 
70 102 
70 103 
70 106 
70 108 
70 112 
70 114 
71 74 
71 75 
71 80 
71 89 
71 95 
71 103 
71 107 
71 109 
71 111 
71 112 
71 115 
71 116 
71 117 
72 73 
72 74 
72 75 
72 76 
72 77 
72 78 
72 79 
72 80 
72 81 
72 82 
72 83 
72 90 
72 101 
72 106 
72 108 
72 114 
73 74 
73 75 
73 76 
73 77 
73 78 
73 79 
73 80 
73 84 
73 90 
73 91 
73 92 
73 93 
73 98 
73 102 
73 104 
73 106 
73 109 
73 113 
73 117 
74 75 
74 76 
74 77 
74 78 
74 81 
74 85 
74 90 
74 94 
74 95 
74 96 
74 97 
74 98 
74 103 
74 107 
74 109 
74 111 
74 115 
75 76 
75 77 
75 78 
75 80 
75 86 
75 89 
75 94 
75 95 
75 99 
75 100 
75 101 
75 102 
75 112 
75 116 
75 117 
76 77 
76 78 
76 83 
76 87 
76 91 
76 95 
76 96 
76 101 
76 103 
76 104 
76 110 
76 115 
76 117 
77 78 
77 82 
77 86 
77 96 
77 97 
77 99 
77 105 
77 106 
77 107 
77 110 
77 111 
77 114 
78 84 
78 85 
78 92 
78 98 
78 100 
78 105 
78 111 
78 112 
78 113 
78 115 
78 116 
79 80 
79 81 
79 82 
79 83 
79 84 
79 85 
79 86 
79 87 
79 88 
79 89 
79 98 
79 102 
79 104 
79 106 
79 109 
79 113 
79 117 
80 81 
80 82 
80 83 
80 84 
80 89 
80 90 
80 91 
80 92 
80 93 
80 95 
80 112 
80 116 
80 117 
81 82 
81 83 
81 85 
81 88 
81 90 
81 91 
81 94 
81 95 
81 96 
81 97 
81 98 
81 99 
81 108 
81 113 
81 116 
82 83 
82 88 
82 93 
82 96 
82 97 
82 99 
82 102 
82 103 
82 105 
82 106 
82 107 
82 112 
83 89 
83 93 
83 96 
83 100 
83 101 
83 104 
83 107 
83 110 
83 114 
83 115 
83 117 
84 85 
84 86 
84 87 
84 88 
84 89 
84 90 
84 91 
84 92 
84 93 
84 98 
84 105 
84 115 
84 116 
85 86 
85 87 
85 88 
85 89 
85 90 
85 92 
85 94 
85 95 
85 96 
85 97 
85 98 
85 100 
85 111 
85 112 
85 113 
86 87 
86 88 
86 89 
86 94 
86 97 
86 99 
86 100 
86 101 
86 102 
86 110 
86 111 
86 114 
87 88 
87 89 
87 91 
87 92 
87 94 
87 95 
87 103 
87 104 
87 105 
87 108 
87 109 
87 110 
88 89 
88 91 
88 93 
88 97 
88 99 
88 102 
88 103 
88 108 
88 112 
88 113 
88 116 
89 93 
89 95 
89 100 
89 104 
89 107 
89 112 
89 114 
89 116 
89 117 
90 91 
90 92 
90 93 
90 94 
90 95 
90 96 
90 97 
90 98 
90 101 
90 106 
90 108 
90 114 
91 92 
91 93 
91 95 
91 99 
91 103 
91 104 
91 108 
91 113 
91 116 
92 93 
92 94 
92 100 
92 105 
92 108 
92 109 
92 110 
92 111 
92 112 
92 113 
93 97 
93 100 
93 102 
93 103 
93 104 
93 107 
93 112 
93 114 
94 95 
94 96 
94 97 
94 98 
94 99 
94 100 
94 101 
94 102 
94 105 
94 108 
94 109 
94 110 
95 96 
95 97 
95 98 
95 103 
95 104 
95 112 
95 116 
95 117 
96 97 
96 98 
96 99 
96 101 
96 105 
96 106 
96 107 
96 110 
96 115 
96 117 
97 98 
97 102 
97 103 
97 110 
97 111 
97 112 
97 114 
98 102 
98 104 
98 105 
98 106 
98 109 
98 113 
98 115 
98 116 
98 117 
99 100 
99 101 
99 102 
99 105 
99 106 
99 107 
99 108 
99 113 
99 116 
100 101 
100 102 
100 104 
100 107 
100 111 
100 112 
100 113 
100 114 
101 102 
101 106 
101 108 
101 110 
101 114 
101 115 
101 117 
102 103 
102 104 
102 106 
102 109 
102 112 
102 113 
102 117 
103 104 
103 107 
103 109 
103 111 
103 112 
103 115 
104 106 
104 107 
104 109 
104 113 
104 114 
104 117 
105 106 
105 107 
105 108 
105 109 
105 110 
105 115 
105 116 
106 107 
106 108 
106 109 
106 113 
106 114 
106 117 
107 109 
107 111 
107 114 
107 115 
108 109 
108 110 
108 113 
108 114 
108 116 
109 110 
109 111 
109 113 
109 115 
109 117 
110 111 
110 114 
110 115 
110 117 
111 112 
111 113 
111 114 
111 115 
112 113 
112 116 
112 117 
113 116 
113 117 
115 116 
115 117 
116 117 
